50
150
96
91
87
86
84
83
83
83
81
80
79
74
72
70
70
67
62
61
60
59
58
56
55
55
54
52
51
51
51
50
49
48
44
43
43
42
40
39
38
34
34
34
33
32
31
31
29
29
22
21
